0 24 
1 26 
2 27 
3 26 
4 26 
5 26 
6 25 
7 24 
8 25 
9 25 
10 24 
11 23 
12 22 
13 24 
14 22 
15 22 
16 22 
17 20 
18 18 
19 19 
20 18 
21 20 
22 19 
23 17 
24 16 
25 15 
26 14 
27 13 
28 11 
29 11 
30 10 
31 8 
32 6 
33 6 
34 6 
35 4 
36 2 
37 1 
38 0 
39 0 

